NAME : XML100_3375_26
DIMENSION : 101
NB_CLUSTERS : 8
CLUSTERING_ALG : KMedoids
CLUSTERING_PARAMS : k(7)
CLUSTERS
1 0
2 11 19 25 30 31 32 35 44 54 62 64 69 91 100
3 1 13 16 23 33 43 48 51 53 63 81 85 97 98
4 5 7 8 41 58 71 78 89 92 94
5 36 37 39 42 47 57 66 68 73 88
6 2 9 17 18 38 46 49 56 59 70 76 83 84 86 87
7 3 4 6 21 22 24 26 50 52 55 61 65 67 72 74 79 80 90 99
8 10 12 14 15 20 27 28 29 34 40 45 60 75 77 82 93 95 96
EOF